173719
93 14 57 69 26 121 9 24 42 76 87 92 70 100 84 58 81 89 11 20 19 5 112 109 46 63 64 3 17 13 148 53 114 10 131 25 149 106 126 54 32 37 127 99 135 137 0 62 68 105 122 27 97 67 95 115 124 116 101 130 94 21 146 43 143 83 38 71 23 128 28 145 80 50 33 72 34 129 141 98 75 147 44 45 85 104 111 103 16 65 39 96 52 86 61 51 119 41 35 66 15 79 90 88 108 6 78 117 55 77 4 120 12 59 48 132 142 102 134 30 18 22 138 1 125 82 107 2 139 113 47 7 73 36 49 29 31 8 91 56 133 136 110 60 123 40 74 118 144 140 
